126189
0,9,28,63,72,44,79,61,69,25,75,66,35,65,70,20,47,23,30,18,4,21,43,67,58,52,7,82,27,78,5,60,14,68,77,24,41,54,22,11,2,56,42,59,80,71,50,46,33,48,34,29,1,37,15,32,26,6,55,16,10,74,81,39,73,57,76,8,31,3,62,38,51,40,49,64,19,13,45,53,12,17,36,0